<?xml version = "1.0" standalone="yes"?>
<!-- This file has been generated by DOcplex version 2.23.222  -->
<CPLEXSolution version="1.0">
 <header
   problemName="CVRP"
   objectiveValue="16584.8"
  />
 <variables>
  <variable name="x_0_1" index="0" value="1.00000"/>
  <variable name="x_0_2" index="1" value="1.00000"/>
  <variable name="x_0_3" index="2" value="1.00000"/>
  <variable name="x_0_4" index="3" value="1.00000"/>
  <variable name="x_0_5" index="4" value="1.00000"/>
  <variable name="x_0_8" index="7" value="1.00000"/>
  <variable name="x_0_9" index="8" value="1.00000"/>
  <variable name="x_0_11" index="10" value="1.00000"/>
  <variable name="x_0_12" index="11" value="1.00000"/>
  <variable name="x_0_13" index="12" value="1.00000"/>
  <variable name="x_0_14" index="13" value="1.00000"/>
  <variable name="x_0_16" index="15" value="1.00000"/>
  <variable name="x_0_17" index="16" value="1.00000"/>
  <variable name="x_0_18" index="17" value="1.00000"/>
  <variable name="x_0_22" index="21" value="1.00000"/>
  <variable name="x_0_23" index="22" value="1.00000"/>
  <variable name="x_1_6" index="29" value="1.00000"/>
  <variable name="x_2_0" index="48" value="1.00000"/>
  <variable name="x_3_15" index="86" value="1.00000"/>
  <variable name="x_4_0" index="96" value="1.00000"/>
  <variable name="x_5_7" index="126" value="1.00000"/>
  <variable name="x_6_0" index="144" value="1.00000"/>
  <variable name="x_7_0" index="168" value="1.00000"/>
  <variable name="x_8_21" index="212" value="1.00000"/>
  <variable name="x_9_19" index="234" value="1.00000"/>
  <variable name="x_10_0" index="240" value="1.00000"/>
  <variable name="x_11_0" index="264" value="1.00000"/>
  <variable name="x_12_0" index="288" value="1.00000"/>
  <variable name="x_13_24" index="335" value="1.00000"/>
  <variable name="x_14_20" index="355" value="1.00000"/>
  <variable name="x_15_0" index="360" value="1.00000"/>
  <variable name="x_16_0" index="384" value="1.00000"/>
  <variable name="x_17_0" index="408" value="1.00000"/>
  <variable name="x_18_0" index="432" value="1.00000"/>
  <variable name="x_19_0" index="456" value="1.00000"/>
  <variable name="x_20_0" index="480" value="1.00000"/>
  <variable name="x_21_0" index="504" value="1.00000"/>
  <variable name="x_22_0" index="528" value="1.00000"/>
  <variable name="x_23_0" index="552" value="1.00000"/>
  <variable name="x_24_10" index="586" value="1.00000"/>
  <variable name="u_1" index="600" value="8.00000"/>
  <variable name="u_2" index="601" value="36.00000"/>
  <variable name="u_3" index="602" value="13.00000"/>
  <variable name="u_4" index="603" value="38.00000"/>
  <variable name="u_5" index="604" value="28.00000"/>
  <variable name="u_6" index="605" value="31.00000"/>
  <variable name="u_7" index="606" value="36.00000"/>
  <variable name="u_8" index="607" value="12.00000"/>
  <variable name="u_9" index="608" value="8.00000"/>
  <variable name="u_10" index="609" value="37.00000"/>
  <variable name="u_11" index="610" value="38.00000"/>
  <variable name="u_12" index="611" value="36.00000"/>
  <variable name="u_13" index="612" value="19.00000"/>
  <variable name="u_14" index="613" value="7.00000"/>
  <variable name="u_15" index="614" value="38.00000"/>
  <variable name="u_16" index="615" value="28.00000"/>
  <variable name="u_17" index="616" value="38.00000"/>
  <variable name="u_18" index="617" value="23.00000"/>
  <variable name="u_19" index="618" value="38.00000"/>
  <variable name="u_20" index="619" value="29.00000"/>
  <variable name="u_21" index="620" value="33.00000"/>
  <variable name="u_22" index="621" value="32.00000"/>
  <variable name="u_23" index="622" value="36.00000"/>
  <variable name="u_24" index="623" value="30.00000"/>
 </variables>
</CPLEXSolution>
